100
100
242 23
431 22
398 1
915 5
708 18
740 3
712 17
37 6
474 18
797 9
774 7
516 23
676 11
809 1
993 2
986 8
189 15
462 18
760 9
992 5
427 12
997 7
416 19
80 2
411 16
391 20
403 14
371 13
986 1
298 23
795 18
580 13
290 17
59 13
85 4
745 5
51 23
94 19
575 15
405 10
261 10
940 25
849 10
897 20
969 7
90 10
819 25
736 2
783 24
376 9
33 23
787 4
478 10
481 25
704 5
609 13
143 14
778 1
347 14
172 15
379 11
638 25
372 7
870 4
817 2
223 5
76 25
463 16
440 11
638 18
389 25
759 5
367 5
950 9
504 3
778 3
193 24
299 24
257 19
910 7
949 7
221 20
437 6
25 25
852 16
934 24
972 7
171 20
583 7
535 22
77 19
899 10
821 24
21 19
60 8
751 21
562 25
503 3
178 3
534 4
